1288.72 0
0 26 30 31 60 134 76 77 64 78 133 68 70 69 67 63 34 1 23 24 22 0 
0 66 71 81 112 126 127 121 116 131 117 119 130 65 19 118 46 0 
0 120 109 107 108 106 114 115 0 
0 73 74 32 48 49 62 50 51 52 53 102 101 99 36 35 79 80 33 0 
0 91 21 25 27 28 29 40 3 41 42 2 10 12 88 14 15 13 92 93 94 45 39 95 37 97 105 57 58 59 0 
0 132 125 111 110 122 123 124 128 129 113 18 17 0 
0 72 47 75 61 54 55 56 103 104 100 98 96 38 43 44 4 5 6 7 8 9 11 16 90 89 87 86 84 85 83 82 20 0 
